(set-logic HORN)
(declare-fun assert_239_33_8_abs0 (Int Int Int Int Int Int) Bool)
(declare-fun assign_213_31_10_abs0 (Int Int Int Int Int Int) Bool)
(declare-fun assert_204_30_10_abs0 (Int Int Int Int Int Int) Bool)
(declare-fun assert_189_29_10_abs0 (Int Int Int Int Int Int) Bool)
(declare-fun while_216_27_8_abs0 (Int Int Int Int Int Int) Bool)
(declare-fun assign_151_26_8_abs0 (Int Int Int Int Int Int) Bool)
(declare-fun assign_142_23_5_abs0 (Int Int Int Int Int Int) Bool)
(declare-fun assign_130_21_2_abs0 (Int Int Int Int Int Int) Bool)
(declare-fun assign_121_20_2_abs0 (Int Int Int Int Int Int) Bool)
(declare-fun if_134_19_5_abs0 (Int Int Int Int Int Int) Bool)
(declare-fun assert_103_18_12_abs0 (Int Int Int Int Int Int) Bool)
(declare-fun while_145_17_1_abs0 (Int Int Int Int Int Int) Bool)
(declare-fun assign_65_15_1_abs0 (Int Int Int Int Int Int) Bool)
(declare-fun assign_56_14_1_abs0 (Int Int Int Int Int Int) Bool)
(declare-fun assign_44_13_1_abs0 (Int Int Int Int Int Int) Bool)
(declare-fun assign_32_12_1_abs0 (Int Int Int Int Int Int) Bool)
(declare-fun end_abs0 (Int Int Int Int Int Int) Bool)
(declare-fun start_abs0 (Int Int Int Int Int Int) Bool)
(assert (forall ((elem Int) (pos Int) (N Int) (i Int) (vabs_f_f Int) (a_select Int)) (start_abs0 vabs_f_f a_select elem pos N i)))
(assert (forall ((i Int) (N Int) (pos Int) (elem Int) (vabs_0_f_f Int) (a_select Int)) (=> (start_abs0 vabs_0_f_f a_select elem pos N i) (assign_32_12_1_abs0 vabs_0_f_f a_select elem pos N i))))
(assert (forall ((i Int) (N Int) (pos Int) (elem Int) (vabs_0_f_f Int) (a_select Int)) (=> (assign_32_12_1_abs0 vabs_0_f_f a_select elem pos N i) (assign_44_13_1_abs0 vabs_0_f_f a_select elem pos N 0))))
(assert (forall ((rnd Int) (i Int) (N Int) (pos Int) (elem Int) (vabs_0_f_f Int) (a_select Int)) (=> (assign_44_13_1_abs0 vabs_0_f_f a_select elem pos N i) (assign_56_14_1_abs0 vabs_0_f_f a_select elem pos rnd i))))
(assert (forall ((rnd Int) (i Int) (N Int) (pos Int) (elem Int) (vabs_0_f_f Int) (a_select Int)) (=> (assign_56_14_1_abs0 vabs_0_f_f a_select elem pos N i) (assign_65_15_1_abs0 vabs_0_f_f a_select rnd pos N i))))
(assert (forall ((i Int) (N Int) (pos Int) (elem Int) (vabs_0_f_f Int) (a_select Int)) (=> (assign_65_15_1_abs0 vabs_0_f_f a_select elem pos N i) (while_145_17_1_abs0 vabs_0_f_f a_select elem (- 0 1) N i))))
(assert (forall ((elem Int) (pos Int) (N Int) (i Int) (vabs_0_f_f Int) (a_select Int)) (=> (and (while_145_17_1_abs0 vabs_0_f_f a_select elem pos N i) (< i N)) (assert_103_18_12_abs0 vabs_0_f_f a_select elem pos N i))))
(assert (forall ((elem Int) (pos Int) (N Int) (i Int) (vabs_0_f_f Int) (a_select Int)) (=> (and (while_145_17_1_abs0 vabs_0_f_f a_select elem pos N i) (not (< i N))) (assign_151_26_8_abs0 vabs_0_f_f a_select elem pos N i))))
(assert (forall ((k Int) (i Int) (N Int) (pos Int) (elem Int) (a_select Int)) (=> (and (assert_103_18_12_abs0 k a_select elem pos N i) (>= k 0) (< k i)) (not (= a_select elem)))))
(assert (forall ((i Int) (N Int) (pos Int) (elem Int) (vabs_0_f_f Int) (a_select Int)) (=> (assert_103_18_12_abs0 vabs_0_f_f a_select elem pos N i) (if_134_19_5_abs0 vabs_0_f_f a_select elem pos N i))))
(assert (forall ((pos Int) (N Int) (i Int) (vabs_0_f_f Int) (a_select_0 Int) (a_select Int)) (=> (and (=> (= vabs_0_f_f i) (= a_select a_select_0)) (if_134_19_5_abs0 i a_select a_select pos N i) (if_134_19_5_abs0 vabs_0_f_f a_select_0 a_select pos N i)) (assign_121_20_2_abs0 vabs_0_f_f a_select_0 a_select pos N i))))
(assert (forall ((elem Int) (pos Int) (N Int) (i Int) (vabs_0_f_f Int) (a_select_0 Int) (a_select Int)) (=> (and (=> (= vabs_0_f_f i) (= a_select a_select_0)) (if_134_19_5_abs0 i a_select elem pos N i) (if_134_19_5_abs0 vabs_0_f_f a_select_0 elem pos N i) (not (= a_select elem))) (assign_142_23_5_abs0 vabs_0_f_f a_select_0 elem pos N i))))
(assert (forall ((i Int) (N Int) (pos Int) (elem Int) (vabs_0_f_f Int) (a_select Int)) (=> (assign_121_20_2_abs0 vabs_0_f_f a_select elem pos N i) (assign_130_21_2_abs0 vabs_0_f_f a_select elem i N i))))
(assert (forall ((i Int) (N Int) (pos Int) (elem Int) (vabs_0_f_f Int) (a_select Int)) (=> (assign_130_21_2_abs0 vabs_0_f_f a_select elem pos N i) (assign_142_23_5_abs0 vabs_0_f_f a_select elem pos N (+ N 2)))))
(assert (forall ((i Int) (N Int) (pos Int) (elem Int) (vabs_0_f_f Int) (a_select Int)) (=> (assign_142_23_5_abs0 vabs_0_f_f a_select elem pos N i) (while_145_17_1_abs0 vabs_0_f_f a_select elem pos N (+ i 1)))))
(assert (forall ((i Int) (N Int) (pos Int) (elem Int) (vabs_0_f_f Int) (a_select Int)) (=> (assign_151_26_8_abs0 vabs_0_f_f a_select elem pos N i) (while_216_27_8_abs0 vabs_0_f_f a_select elem pos N 0))))
(assert (forall ((elem Int) (pos Int) (N Int) (i Int) (vabs_0_f_f Int) (a_select Int)) (=> (and (while_216_27_8_abs0 vabs_0_f_f a_select elem pos N i) (< i pos)) (assert_189_29_10_abs0 vabs_0_f_f a_select elem pos N i))))
(assert (forall ((elem Int) (pos Int) (N Int) (i Int) (vabs_0_f_f Int) (a_select Int)) (=> (and (while_216_27_8_abs0 vabs_0_f_f a_select elem pos N i) (not (< i pos))) (assert_239_33_8_abs0 vabs_0_f_f a_select elem pos N i))))
(assert (forall ((k Int) (i Int) (N Int) (pos Int) (elem Int) (a_select Int)) (=> (and (assert_189_29_10_abs0 k a_select elem pos N i) (>= k 0) (< k pos)) (not (= a_select elem)))))
(assert (forall ((i Int) (N Int) (pos Int) (elem Int) (vabs_0_f_f Int) (a_select Int)) (=> (assert_189_29_10_abs0 vabs_0_f_f a_select elem pos N i) (assert_204_30_10_abs0 vabs_0_f_f a_select elem pos N i))))
(assert (forall ((i Int) (N Int) (pos Int) (elem Int) (a_select Int)) (=> (assert_204_30_10_abs0 i a_select elem pos N i) (not (= a_select elem)))))
(assert (forall ((i Int) (N Int) (pos Int) (elem Int) (vabs_0_f_f Int) (a_select Int)) (=> (assert_204_30_10_abs0 vabs_0_f_f a_select elem pos N i) (assign_213_31_10_abs0 vabs_0_f_f a_select elem pos N i))))
(assert (forall ((i Int) (N Int) (pos Int) (elem Int) (vabs_0_f_f Int) (a_select Int)) (=> (assign_213_31_10_abs0 vabs_0_f_f a_select elem pos N i) (while_216_27_8_abs0 vabs_0_f_f a_select elem pos N (+ i 1)))))
(assert (forall ((i Int) (N Int) (pos Int) (elem Int) (a_select Int)) (=> (assert_239_33_8_abs0 pos a_select elem pos N i) (or (= a_select elem) (= pos (- 0 1))))))
(assert (forall ((i Int) (N Int) (pos Int) (elem Int) (vabs_0_f_f Int) (a_select Int)) (=> (assert_239_33_8_abs0 vabs_0_f_f a_select elem pos N i) (end_abs0 vabs_0_f_f a_select elem pos N i))))
(check-sat)